p cnf 87 204
a 1 2 3 4 5 6 7 8 9 10 11 12 13 14 15 16 17 0
e 18 19 20 21 22 23 24 25 26 27 28 29 30 31 32 33 34 35 36 37 38 39 40 41 42 43 44 45 46 47 48 49 50 51 52 53 54 55 56 57 58 59 60 61 62 63 64 65 66 67 68 69 70 71 72 73 74 75 76 77 78 79 80 81 82 83 84 85 86 0
-1 -32 0
9 -32 0
1 32 -9 0
-8 -33 0
32 -33 0
8 33 -32 0
34 -8 0
34 -33 0
8 33 -34 0
-7 -34 -35 0
7 34 -35 0
34 35 -7 0
7 35 -34 0
-2 -36 0
7 -36 0
2 36 -7 0
-11 -37 0
36 -37 0
11 37 -36 0
38 -11 0
38 -37 0
11 37 -38 0
-10 -38 -39 0
10 38 -39 0
38 39 -10 0
10 39 -38 0
-3 -40 0
10 -40 0
3 40 -10 0
-13 -41 0
40 -41 0
13 41 -40 0
42 -13 0
42 -41 0
13 41 -42 0
-12 -42 -43 0
12 42 -43 0
42 43 -12 0
12 43 -42 0
-4 -44 0
12 -44 0
4 44 -12 0
-15 -45 0
44 -45 0
15 45 -44 0
46 -15 0
46 -45 0
15 45 -46 0
-14 -46 -47 0
14 46 -47 0
46 47 -14 0
14 47 -46 0
-5 -48 0
14 -48 0
5 48 -14 0
-17 -49 0
48 -49 0
17 49 -48 0
50 -17 0
50 -49 0
17 49 -50 0
-16 -50 -51 0
16 50 -51 0
50 51 -16 0
16 51 -50 0
-1 -52 0
-2 -52 0
-3 -52 0
-4 -52 0
-5 -52 0
-6 -52 0
-35 -52 0
-39 -52 0
-43 -52 0
-47 -52 0
-51 -52 0
1 2 3 4 5 6 35 39 43 47 51 52 0
-18 -53 0
25 -53 0
18 53 -25 0
-24 -54 0
53 -54 0
24 54 -53 0
55 -24 0
55 -54 0
24 54 -55 0
-23 -55 -56 0
23 55 -56 0
55 56 -23 0
23 56 -55 0
-19 -57 0
23 -57 0
19 57 -23 0
-27 -58 0
57 -58 0
27 58 -57 0
59 -27 0
59 -58 0
27 58 -59 0
-26 -59 -60 0
26 59 -60 0
59 60 -26 0
26 60 -59 0
-20 -61 0
26 -61 0
20 61 -26 0
-29 -62 0
61 -62 0
29 62 -61 0
63 -29 0
63 -62 0
29 62 -63 0
-28 -63 -64 0
28 63 -64 0
63 64 -28 0
28 64 -63 0
-21 -65 0
28 -65 0
21 65 -28 0
-31 -66 0
65 -66 0
31 66 -65 0
67 -31 0
67 -66 0
31 66 -67 0
-30 -67 -68 0
30 67 -68 0
67 68 -30 0
30 68 -67 0
-18 -69 0
-19 -69 0
-20 -69 0
-21 -69 0
-22 -69 0
-56 -69 0
-60 -69 0
-64 -69 0
-68 -69 0
18 19 20 21 22 56 60 64 68 69 0
-6 -18 -70 0
6 18 -70 0
18 70 -6 0
6 70 -18 0
-16 -25 -71 0
16 25 -71 0
25 71 -16 0
16 71 -25 0
-70 -72 0
-71 -72 0
70 71 72 0
-6 -19 -73 0
6 19 -73 0
19 73 -6 0
6 73 -19 0
-16 -23 -74 0
16 23 -74 0
23 74 -16 0
16 74 -23 0
-73 -75 0
-74 -75 0
73 74 75 0
-6 -20 -76 0
6 20 -76 0
20 76 -6 0
6 76 -20 0
-16 -26 -77 0
16 26 -77 0
26 77 -16 0
16 77 -26 0
-76 -78 0
-77 -78 0
76 77 78 0
-6 -21 -79 0
6 21 -79 0
21 79 -6 0
6 79 -21 0
-16 -28 -80 0
16 28 -80 0
28 80 -16 0
16 80 -28 0
-79 -81 0
-80 -81 0
79 80 81 0
-6 -22 -82 0
6 22 -82 0
22 82 -6 0
6 82 -22 0
-16 -30 -83 0
16 30 -83 0
30 83 -16 0
16 83 -30 0
-82 -84 0
-83 -84 0
82 83 84 0
85 -72 0
85 -75 0
85 -78 0
85 -81 0
85 -84 0
72 75 78 81 84 -85 0
69 -86 0
85 -86 0
86 -69 -85 0
86 -52 0
